36
16
1
35
99
144
145
132
122
150
125
126
128
123
94
93
78
80
88
101
81
68
67
23
22
5
13
28
38
3
32
33
37
2
34
49
75
127
149
130
148
147
131
121
146
52
72
79
39
12
6
24
26
4
15
140
142
143
137
135
120
76
74
77
47
71
69
55
44
87
83
63
64
57
65
66
114
90
51
73
92
91
115
97
98
129
151
152
124
113
100
42
58
104
112
82
53
46
54
56
43
41
60
61
86
107
138
119
136
134
133
11
7
20
21
19
10
40
18
17
9
8
109
108
85
84
110
117
141
139
118
96
116
95
50
48
70
45
89
102
103
111
105
106
62
59
25
27
14
29
30
31
36
